
630.0
630.0
630.0
630.0
630.0
630.0
630.0
630.0
630.0
1080.0
630.0
630.0
630.0
630.0
630.0
630.0
630.0
630.0
630.0
630.0
630.0
660.0
630.0
630.0
630.0
630.0
630.0
630.0
630.0
630.0
630.0
690.0
630.0
930.0
720.0
630.0
630.0
750.0
630.0
630.0
630.0
630.0
1020.0
630.0
630.0
630.0
630.0
630.0
630.0
630.0
630.0
630.0
630.0
1050.0
630.0
630.0
630.0
630.0
630.0
630.0
630.0
630.0
630.0
630.0
630.0
630.0
630.0
630.0
630.0
630.0
630.0
630.0
630.0
630.0
630.0
630.0
630.0
630.0
630.0
630.0